Ni O                                    
   1.00000000000000     
     7.9306024305390359   -9.1612435445813762    0.0000000000000000
     7.9306024023551425    9.1612435775484755    0.0000000000000000
     0.0000000000000000    0.0000000000000000   35.9203753927999614
   Ni   O 
    60    60
Selective dynamics
Direct
     0.0000000000000000    0.0000000000000000    0.4175902906350686   F   F   F
     0.0413562501459656    0.2080229124434361    0.5410403353572292   T   T   T
     0.9983612456741648    0.9983612427551162    0.5776046031855003   T   T   T
     0.4577981604519332    0.2911314927630239    0.4554552203698465   T   T   T
     0.4162485060813241    0.0829151733720921    0.4977976093897362   T   T   T
     0.2911314898484007    0.4577981568989055    0.4554552202769450   T   T   T
     0.2495818421877337    0.2495818398935175    0.4977976081511993   T   T   T
     0.1244648242999421    0.6244648250406818    0.4554552205018396   T   T   T
     0.0829151791036013    0.4162485109732912    0.4977976070580891   T   T   T
     0.8333333333333357    0.1666666666666643    0.4175902906350686   F   F   F
     0.8746895721313355    0.3746895754798237    0.5410403361399780   T   T   T
     0.8316945900684719    0.1650279227368684    0.5776046031675343   T   T   T
     0.6666666666666643    0.3333333333333357    0.4175902906350686   F   F   F
     0.7080228990703558    0.5413562290430366    0.5410403335312745   T   T   T
     0.6650278969219386    0.3316945629419827    0.5776046045439898   T   T   T
     0.5000000000000000    0.5000000000000000    0.4175902906350686   F   F   F
     0.5413562503777123    0.7080229129325656    0.5410403353256704   T   T   T
     0.4983612457695482    0.4983612431215252    0.5776046032179641   T   T   T
     0.3333333333333357    0.6666666666666643    0.4175902906350686   F   F   F
     0.3746895723063531    0.8746895759072235    0.5410403360568645   T   T   T
     0.3316945898407032    0.6650279230567585    0.5776046031449167   T   T   T
     0.1666666666666643    0.8333333333333357    0.4175902906350686   F   F   F
     0.2080228990741948    0.0413562290094405    0.5410403334652268   T   T   T
     0.1650278967236334    0.8316945630125649    0.5776046045393882   T   T   T
     0.9577981613315477    0.7911314934457016    0.4554552203725545   T   T   T
     0.9162485066602084    0.5829151736792257    0.4977976092616091   T   T   T
     0.7911314909597860    0.9577981578479254    0.4554552202068539   T   T   T
     0.7495818418521959    0.7495818398046116    0.4977976081447282   T   T   T
     0.6244648254056622    0.1244648262489247    0.4554552204425093   T   T   T
     0.5829151783004995    0.9162485104050456    0.4977976071909105   T   T   T
     0.0411314925295805    0.2077981578246070    0.4554552199207806   T   T   T
     0.9995818422602064    0.9995818417633507    0.4977976079295236   T   T   T
     0.4166666666666643    0.0833333333333357    0.4175902906350686   F   F   F
     0.4580229013115997    0.2913562332439232    0.5410403347550770   T   T   T
     0.4150278951056101    0.0816945636426409    0.5776046052563922   T   T   T
     0.2500000000000000    0.2500000000000000    0.4175902906350686   F   F   F
     0.2913562493824219    0.4580229142899437    0.5410403358686401   T   T   T
     0.2483612447096027    0.2483612440860809    0.5776046044233656   T   T   T
     0.0833333333333357    0.4166666666666643    0.4175902906350686   F   F   F
     0.1246895688447242    0.6246895746565688    0.5410403344634199   T   T   T
     0.0816945898767836    0.4150279223688561    0.5776046021598999   T   T   T
     0.8744648266592188    0.3744648280253283    0.4554552201814361   T   T   T
     0.8329151751146180    0.1662485108580526    0.4977976072608662   T   T   T
     0.7077981593333427    0.5411314928045233    0.4554552205234328   T   T   T
     0.6662485065171169    0.3329151730714558    0.4977976094091998   T   T   T
     0.5411314922213341    0.7077981578274887    0.4554552199984959   T   T   T
     0.4995818421223987    0.4995818418245738    0.4977976080300707   T   T   T
     0.3744648255109757    0.8744648270314562    0.4554552202406837   T   T   T
     0.3329151748195170    0.6662485107974113    0.4977976072876280   T   T   T
     0.2077981587858432    0.0411314922951639    0.4554552204928854   T   T   T
     0.1662485060644517    0.8329151728441740    0.4977976093844603   T   T   T
     0.9166666666666643    0.5833333333333357    0.4175902906350686   F   F   F
     0.9580229012875704    0.7913562333365567    0.5410403346335446   T   T   T
     0.9150278950612363    0.5816945638190704    0.5776046051904119   T   T   T
     0.7500000000000000    0.7500000000000000    0.4175902906350686   F   F   F
     0.7913562490414844    0.9580229137761770    0.5410403358427586   T   T   T
     0.7483612445863415    0.7483612441389338    0.5776046043434485   T   T   T
     0.5833333333333357    0.9166666666666643    0.4175902906350686   F   F   F
     0.6246895688822849    0.1246895745015976    0.5410403345804411   T   T   T
     0.5816945900529799    0.9150279224514475    0.5776046020310175   T   T   T
     0.1250000000000000    0.1250000000000000    0.4175902906350686   F   F   F
     0.1660727371262692    0.3327394015551322    0.4556463521701615   T   T   T
     0.1245988050912646    0.1245988032934622    0.4982014586630650   T   T   T
     0.1665192439480231    0.3331859020492596    0.5398878644254582   T   T   T
     0.1241860735124311    0.1241860797315662    0.5792621831219353   T   T   T
     0.5416666666666643    0.2083333333333357    0.4175902906350686   F   F   F
     0.5827394019273130    0.4160727338452736    0.4556463528974191   T   T   T
     0.5412654701226426    0.2079321384943995    0.4982014598694516   T   T   T
     0.5831858941406789    0.4165192201679413    0.5398878671673175   T   T   T
     0.5408527308951802    0.2075193979174163    0.5792621853149059   T   T   T
     0.3750000000000000    0.3750000000000000    0.4175902906350686   F   F   F
     0.4160727359186281    0.5827394029588449    0.4556463522797298   T   T   T
     0.3745988043085001    0.3745988033443892    0.4982014584452462   T   T   T
     0.4165192378852269    0.5831859044809025    0.5398878643845774   T   T   T
     0.3741860753879626    0.3741860812768739    0.5792621829712010   T   T   T
     0.2083333333333357    0.5416666666666643    0.4175902906350686   F   F   F
     0.2494060685710880    0.7494060702332141    0.4556463530448192   T   T   T
     0.2079321379263356    0.5412654733565118    0.4982014588087490   T   T   T
     0.2498525642406575    0.7498525671378095    0.5398878660074846   T   T   T
     0.2075194244865907    0.5408527513951542    0.5792621818995689   T   T   T
     0.9583333333333357    0.2916666666666643    0.4175902906350686   F   F   F
     0.9994060669836227    0.4994060701754063    0.4556463526837915   T   T   T
     0.9579321380076710    0.2912654719191972    0.4982014581022526   T   T   T
     0.9998525573265828    0.4998525680760917    0.5398878666105751   T   T   T
     0.9575194234707798    0.2908527540968340    0.5792621809211889   T   T   T
     0.7916666666666643    0.4583333333333357    0.4175902906350686   F   F   F
     0.8327394013082041    0.6660727338961665    0.4556463534183187   T   T   T
     0.7912654710720772    0.4579321368109807    0.4982014596378621   T   T   T
     0.8331858922155944    0.6665192261987869    0.5398878673951726   T   T   T
     0.7908527365616177    0.4575193958001120    0.5792621847037345   T   T   T
     0.6250000000000000    0.6250000000000000    0.4175902906350686   F   F   F
     0.6660727364936487    0.8327394011933031    0.4556463521584826   T   T   T
     0.6245988049726445    0.6245988033900629    0.4982014586775306   T   T   T
     0.6665192438503409    0.8331859021069890    0.5398878642726701   T   T   T
     0.6241860736024264    0.6241860797855248    0.5792621832281384   T   T   T
     0.4583333333333357    0.7916666666666643    0.4175902906350686   F   F   F
     0.4994060669013487    0.9994060702513002    0.4556463526800832   T   T   T
     0.4579321381970780    0.7912654726264522    0.4982014579752695   T   T   T
     0.4998525571708889    0.9998525682289873    0.5398878665562828   T   T   T
     0.4575194230714462    0.7908527540208690    0.5792621807787839   T   T   T
     0.2916666666666643    0.9583333333333357    0.4175902906350686   F   F   F
     0.3327394022550665    0.1660727346338057    0.4556463534386064   T   T   T
     0.2912654716573439    0.9579321373925105    0.4982014596184878   T   T   T
     0.3331858923934876    0.1665192263458185    0.5398878675325898   T   T   T
     0.2908527361155998    0.9575193955688551    0.5792621846808439   T   T   T
     0.0416666666666643    0.7083333333333357    0.4175902906350686   F   F   F
     0.0827394017258465    0.9160727336592489    0.4556463528873880   T   T   T
     0.0412654699689969    0.7079321382106903    0.4982014599392251   T   T   T
     0.0831858938495524    0.9165192199308881    0.5398878671225575   T   T   T
     0.0408527306328425    0.7075193978981075    0.5792621853401984   T   T   T
     0.8750000000000000    0.8750000000000000    0.4175902906350686   F   F   F
     0.9160727352406771    0.0827394023961044    0.4556463522951390   T   T   T
     0.8745988042054216    0.8745988035253864    0.4982014583966816   T   T   T
     0.9165192383837121    0.0831859048180424    0.5398878642989702   T   T   T
     0.8741860752860570    0.8741860810726239    0.5792621829354458   T   T   T
     0.7083333333333357    0.0416666666666643    0.4175902906350686   F   F   F
     0.7494060673485855    0.2494060690909392    0.4556463530813430   T   T   T
     0.7079321380161726    0.0412654738867353    0.4982014586794623   T   T   T
     0.7498525648636171    0.2498525673967612    0.5398878659515490   T   T   T
     0.7075194249072014    0.0408527514294727    0.5792621817912850   T   T   T
 
  0.00000000E+00  0.00000000E+00  0.00000000E+00
  0.00000000E+00  0.00000000E+00  0.00000000E+00
  0.00000000E+00  0.00000000E+00  0.00000000E+00
  0.00000000E+00  0.00000000E+00  0.00000000E+00
  0.00000000E+00  0.00000000E+00  0.00000000E+00
  0.00000000E+00  0.00000000E+00  0.00000000E+00
  0.00000000E+00  0.00000000E+00  0.00000000E+00
  0.00000000E+00  0.00000000E+00  0.00000000E+00
  0.00000000E+00  0.00000000E+00  0.00000000E+00
  0.00000000E+00  0.00000000E+00  0.00000000E+00
  0.00000000E+00  0.00000000E+00  0.00000000E+00
  0.00000000E+00  0.00000000E+00  0.00000000E+00
  0.00000000E+00  0.00000000E+00  0.00000000E+00
  0.00000000E+00  0.00000000E+00  0.00000000E+00
  0.00000000E+00  0.00000000E+00  0.00000000E+00
  0.00000000E+00  0.00000000E+00  0.00000000E+00
  0.00000000E+00  0.00000000E+00  0.00000000E+00
  0.00000000E+00  0.00000000E+00  0.00000000E+00
  0.00000000E+00  0.00000000E+00  0.00000000E+00
  0.00000000E+00  0.00000000E+00  0.00000000E+00
  0.00000000E+00  0.00000000E+00  0.00000000E+00
  0.00000000E+00  0.00000000E+00  0.00000000E+00
  0.00000000E+00  0.00000000E+00  0.00000000E+00
  0.00000000E+00  0.00000000E+00  0.00000000E+00
  0.00000000E+00  0.00000000E+00  0.00000000E+00
  0.00000000E+00  0.00000000E+00  0.00000000E+00
  0.00000000E+00  0.00000000E+00  0.00000000E+00
  0.00000000E+00  0.00000000E+00  0.00000000E+00
  0.00000000E+00  0.00000000E+00  0.00000000E+00
  0.00000000E+00  0.00000000E+00  0.00000000E+00
  0.00000000E+00  0.00000000E+00  0.00000000E+00
  0.00000000E+00  0.00000000E+00  0.00000000E+00
  0.00000000E+00  0.00000000E+00  0.00000000E+00
  0.00000000E+00  0.00000000E+00  0.00000000E+00
  0.00000000E+00  0.00000000E+00  0.00000000E+00
  0.00000000E+00  0.00000000E+00  0.00000000E+00
  0.00000000E+00  0.00000000E+00  0.00000000E+00
  0.00000000E+00  0.00000000E+00  0.00000000E+00
  0.00000000E+00  0.00000000E+00  0.00000000E+00
  0.00000000E+00  0.00000000E+00  0.00000000E+00
  0.00000000E+00  0.00000000E+00  0.00000000E+00
  0.00000000E+00  0.00000000E+00  0.00000000E+00
  0.00000000E+00  0.00000000E+00  0.00000000E+00
  0.00000000E+00  0.00000000E+00  0.00000000E+00
  0.00000000E+00  0.00000000E+00  0.00000000E+00
  0.00000000E+00  0.00000000E+00  0.00000000E+00
  0.00000000E+00  0.00000000E+00  0.00000000E+00
  0.00000000E+00  0.00000000E+00  0.00000000E+00
  0.00000000E+00  0.00000000E+00  0.00000000E+00
  0.00000000E+00  0.00000000E+00  0.00000000E+00
  0.00000000E+00  0.00000000E+00  0.00000000E+00
  0.00000000E+00  0.00000000E+00  0.00000000E+00
  0.00000000E+00  0.00000000E+00  0.00000000E+00
  0.00000000E+00  0.00000000E+00  0.00000000E+00
  0.00000000E+00  0.00000000E+00  0.00000000E+00
  0.00000000E+00  0.00000000E+00  0.00000000E+00
  0.00000000E+00  0.00000000E+00  0.00000000E+00
  0.00000000E+00  0.00000000E+00  0.00000000E+00
  0.00000000E+00  0.00000000E+00  0.00000000E+00
  0.00000000E+00  0.00000000E+00  0.00000000E+00
  0.00000000E+00  0.00000000E+00  0.00000000E+00
  0.00000000E+00  0.00000000E+00  0.00000000E+00
  0.00000000E+00  0.00000000E+00  0.00000000E+00
  0.00000000E+00  0.00000000E+00  0.00000000E+00
  0.00000000E+00  0.00000000E+00  0.00000000E+00
  0.00000000E+00  0.00000000E+00  0.00000000E+00
  0.00000000E+00  0.00000000E+00  0.00000000E+00
  0.00000000E+00  0.00000000E+00  0.00000000E+00
  0.00000000E+00  0.00000000E+00  0.00000000E+00
  0.00000000E+00  0.00000000E+00  0.00000000E+00
  0.00000000E+00  0.00000000E+00  0.00000000E+00
  0.00000000E+00  0.00000000E+00  0.00000000E+00
  0.00000000E+00  0.00000000E+00  0.00000000E+00
  0.00000000E+00  0.00000000E+00  0.00000000E+00
  0.00000000E+00  0.00000000E+00  0.00000000E+00
  0.00000000E+00  0.00000000E+00  0.00000000E+00
  0.00000000E+00  0.00000000E+00  0.00000000E+00
  0.00000000E+00  0.00000000E+00  0.00000000E+00
  0.00000000E+00  0.00000000E+00  0.00000000E+00
  0.00000000E+00  0.00000000E+00  0.00000000E+00
  0.00000000E+00  0.00000000E+00  0.00000000E+00
  0.00000000E+00  0.00000000E+00  0.00000000E+00
  0.00000000E+00  0.00000000E+00  0.00000000E+00
  0.00000000E+00  0.00000000E+00  0.00000000E+00
  0.00000000E+00  0.00000000E+00  0.00000000E+00
  0.00000000E+00  0.00000000E+00  0.00000000E+00
  0.00000000E+00  0.00000000E+00  0.00000000E+00
  0.00000000E+00  0.00000000E+00  0.00000000E+00
  0.00000000E+00  0.00000000E+00  0.00000000E+00
  0.00000000E+00  0.00000000E+00  0.00000000E+00
  0.00000000E+00  0.00000000E+00  0.00000000E+00
  0.00000000E+00  0.00000000E+00  0.00000000E+00
  0.00000000E+00  0.00000000E+00  0.00000000E+00
  0.00000000E+00  0.00000000E+00  0.00000000E+00
  0.00000000E+00  0.00000000E+00  0.00000000E+00
  0.00000000E+00  0.00000000E+00  0.00000000E+00
  0.00000000E+00  0.00000000E+00  0.00000000E+00
  0.00000000E+00  0.00000000E+00  0.00000000E+00
  0.00000000E+00  0.00000000E+00  0.00000000E+00
  0.00000000E+00  0.00000000E+00  0.00000000E+00
  0.00000000E+00  0.00000000E+00  0.00000000E+00
  0.00000000E+00  0.00000000E+00  0.00000000E+00
  0.00000000E+00  0.00000000E+00  0.00000000E+00
  0.00000000E+00  0.00000000E+00  0.00000000E+00
  0.00000000E+00  0.00000000E+00  0.00000000E+00
  0.00000000E+00  0.00000000E+00  0.00000000E+00
  0.00000000E+00  0.00000000E+00  0.00000000E+00
  0.00000000E+00  0.00000000E+00  0.00000000E+00
  0.00000000E+00  0.00000000E+00  0.00000000E+00
  0.00000000E+00  0.00000000E+00  0.00000000E+00
  0.00000000E+00  0.00000000E+00  0.00000000E+00
  0.00000000E+00  0.00000000E+00  0.00000000E+00
  0.00000000E+00  0.00000000E+00  0.00000000E+00
  0.00000000E+00  0.00000000E+00  0.00000000E+00
  0.00000000E+00  0.00000000E+00  0.00000000E+00
  0.00000000E+00  0.00000000E+00  0.00000000E+00
  0.00000000E+00  0.00000000E+00  0.00000000E+00
  0.00000000E+00  0.00000000E+00  0.00000000E+00
  0.00000000E+00  0.00000000E+00  0.00000000E+00
  0.00000000E+00  0.00000000E+00  0.00000000E+00
