76
C32P2N2H34O6
O       10.334498000      0.970124000     -1.518911000
P        8.793441000      1.434097000     -1.377482000
C        8.006450000      0.261265000     -2.507464000
C        6.525778000      0.573608000     -2.792685000
C        5.588266000      0.562802000     -1.578695000
C        5.557498000     -0.774243000     -0.826604000
N        4.607957000     -0.768335000      0.270731000
C        3.229997000     -0.858434000      0.126013000
C        2.613501000     -0.659828000      1.386234000
C        3.681136000     -0.425061000      2.333514000
C        4.896710000     -0.493372000      1.602959000
C        6.133272000     -0.316606000      2.228617000
C        6.135845000     -0.064672000      3.597947000
C        4.942547000      0.011610000      4.332772000
C        3.714914000     -0.171449000      3.706544000
C        1.225329000     -0.730840000      1.496525000
C        0.443253000     -0.986291000      0.365575000
C       -1.034992000     -1.070065000      0.463864000
C       -1.745439000     -2.050465000     -0.234919000
C       -3.134512000     -2.115521000     -0.134212000
C       -3.827849000     -1.190481000      0.687502000
C       -3.136836000     -0.201219000      1.388999000
C       -1.754067000     -0.156589000      1.266294000
N       -5.189482000     -1.462400000      0.629367000
C       -6.253079000     -0.707740000      1.272415000
C       -6.937887000      0.299474000      0.342087000
C       -5.973842000      1.362358000     -0.196304000
C       -6.646569000      2.384830000     -1.125912000
P       -7.777126000      3.513453000     -0.284726000
O       -8.900098000      2.974528000      0.524189000
O       -8.275597000      4.472516000     -1.497281000
O       -6.730127000      4.411186000      0.571074000
C       -5.389846000     -2.536968000     -0.227851000
C       -4.134650000     -2.980837000     -0.718498000
C       -4.082207000     -4.065618000     -1.596415000
C       -5.266165000     -4.688366000     -1.975060000
C       -6.500661000     -4.235926000     -1.483282000
C       -6.581743000     -3.157492000     -0.607835000
C        1.087617000     -1.166682000     -0.878529000
C        2.468514000     -1.106937000     -1.016398000
O        8.388189000      0.914425000      0.117847000
O        8.508390000      2.875674000     -1.565239000
H       10.969713000      1.542974000     -1.071869000
H        8.582936000      0.303157000     -3.435152000
H        8.150435000     -0.740801000     -2.096113000
H        6.169824000     -0.156137000     -3.528886000
H        6.462899000      1.552975000     -3.274093000
H        4.575290000      0.797605000     -1.918553000
H        5.855055000      1.358327000     -0.877025000
H        5.295513000     -1.589797000     -1.509637000
H        6.539299000     -1.010382000     -0.416653000
H        7.063502000     -0.390203000      1.678722000
H        7.085044000      0.069848000      4.107186000
H        4.981713000      0.209497000      5.398730000
H        2.792202000     -0.119312000      4.276114000
H        0.751671000     -0.614813000      2.466101000
H       -1.212369000     -2.778775000     -0.837626000
H       -3.653765000      0.529528000      2.000475000
H       -1.209357000      0.628075000      1.780716000
H       -6.987529000     -1.418227000      1.662835000
H       -5.828179000     -0.198638000      2.140660000
H       -7.763444000      0.771418000      0.882068000
H       -7.386398000     -0.239838000     -0.499909000
H       -5.169355000      0.875156000     -0.753808000
H       -5.489883000      1.889920000      0.632262000
H       -7.222200000      1.887803000     -1.912062000
H       -5.902601000      3.012420000     -1.624148000
H       -9.216819000      4.677743000     -1.442508000
H       -7.127045000      4.822018000      1.348740000
H       -3.128183000     -4.417203000     -1.976956000
H       -5.239132000     -5.531735000     -2.656977000
H       -7.413219000     -4.735317000     -1.792759000
H       -7.542209000     -2.816072000     -0.238185000
H        0.480110000     -1.330048000     -1.762371000
H        2.929611000     -1.240557000     -1.988997000
H        7.929107000      1.588195000      0.635474000
