45
C18PNH22O3
C        3.983216000     -1.689337000      0.368897000
C        3.040217000     -0.722738000      0.008429000
C        1.769002000     -1.127561000     -0.467920000
C        1.435860000     -2.479457000     -0.568572000
C        2.395278000     -3.414523000     -0.200237000
C        3.672074000     -3.042535000      0.267615000
C        3.040214000      0.722739000      0.008431000
C        1.768999000      1.127560000     -0.467918000
C        3.983208000      1.689340000      0.368909000
C        3.672061000      3.042537000      0.267633000
C        2.395263000      3.414523000     -0.200216000
C        1.435850000      2.479454000     -0.568561000
C       -0.378468000     -0.000002000     -1.166110000
C       -1.333965000     -0.000002000      0.033519000
C       -2.801459000      0.000003000     -0.398082000
C       -3.751133000      0.000007000      0.808920000
C        4.673674000      4.109036000      0.643050000
C        4.673670000     -4.109035000      0.643073000
H        4.960172000     -1.382715000      0.732147000
H        0.460426000     -2.800835000     -0.917860000
H        2.151726000     -4.471037000     -0.272063000
H        2.151706000      4.471036000     -0.272029000
H        0.460412000      2.800830000     -0.917838000
H        4.960164000      1.382719000      0.732162000
H       -0.559123000     -0.874040000     -1.798088000
H       -0.559124000      0.874035000     -1.798087000
H       -1.120597000     -0.877366000      0.653934000
H       -1.120593000      0.877358000      0.653938000
H       -3.009772000     -0.877106000     -1.018714000
H       -3.009765000      0.877114000     -1.018714000
H       -3.586788000     -0.880098000      1.437677000
H       -3.586786000      0.880113000      1.437674000
H       -6.460551000      1.743641000     -0.524136000
H       -6.460489000     -1.743766000     -0.523927000
H        4.969188000      4.705303000     -0.226861000
H        4.263072000      4.803595000      1.382900000
H        5.582440000      3.675940000      1.067086000
H        4.968817000     -4.705648000     -0.226723000
H        5.582631000     -3.675911000      1.066663000
H        4.263218000     -4.803281000      1.383303000
N        1.016921000     -0.000001000     -0.775159000
O       -5.612436000     -1.289280000     -0.595184000
O       -5.612397000      1.289305000     -0.595152000
O       -6.510640000     -0.000021000      1.476547000
P       -5.505095000      0.000003000      0.387922000
