59
C26PNH26O5
C       -0.795925000      0.566422000     -0.753981000
C        0.481050000      0.602707000     -1.354449000
N        0.985295000     -0.682310000     -1.444676000
C        2.325716000     -1.061304000     -1.866872000
C        3.302347000     -1.252840000     -0.699834000
C        3.488606000      0.017839000      0.134377000
C        4.448990000     -0.144596000      1.323080000
P        6.189713000     -0.287899000      0.854387000
O        6.700894000      0.662686000     -0.162908000
O        7.006479000     -0.207219000      2.260878000
O        6.294427000     -1.858013000      0.471357000
C        0.040519000     -1.552318000     -0.936674000
C       -1.114777000     -0.833073000     -0.564957000
C       -2.290262000     -1.582987000     -0.212370000
C       -3.595788000     -1.049991000     -0.149084000
C       -4.692031000     -1.818790000      0.188742000
C       -4.532696000     -3.189730000      0.480511000
O       -5.550877000     -4.022929000      0.852747000
C       -6.858320000     -3.486704000      0.968148000
C       -3.282392000     -3.763148000      0.354292000
C       -2.157376000     -3.001076000     -0.021284000
C       -0.909132000     -3.644835000     -0.286086000
C        0.161728000     -2.950536000     -0.778145000
H        2.695944000     -0.294085000     -2.549250000
H        2.252249000     -1.981008000     -2.453360000
H        2.942213000     -2.061823000     -0.055054000
H        4.259742000     -1.589892000     -1.107129000
H        2.519022000      0.335241000      0.526744000
H        3.844168000      0.834217000     -0.502165000
H        4.397602000      0.734132000      1.972275000
H        4.191990000     -1.010355000      1.939914000
H        7.590765000      0.559346000      2.301008000
H        7.140834000     -2.111662000      0.082738000
H       -3.760558000     -0.018640000     -0.426318000
H       -5.670761000     -1.355989000      0.205549000
H       -7.491377000     -4.313765000      1.285647000
H       -6.905130000     -2.689656000      1.719457000
H       -7.226241000     -3.101497000      0.009893000
H       -3.185886000     -4.831164000      0.519953000
H       -0.837045000     -4.717329000     -0.135227000
H        1.083896000     -3.462065000     -1.029755000
C       -1.407787000      1.816590000     -0.390387000
C       -2.495093000      1.951001000      0.499426000
C       -3.037560000      3.179206000      0.823371000
C       -2.503478000      4.358873000      0.264200000
O       -2.989892000      5.614678000      0.500722000
C       -4.111978000      5.757704000      1.355322000
C       -1.391179000      4.272631000     -0.550352000
C       -0.804286000      3.030463000     -0.865572000
C        0.428480000      2.980257000     -1.586976000
C        1.089313000      1.800638000     -1.790542000
H       -3.861953000      3.218430000      1.524303000
H       -4.328209000      6.824457000      1.385336000
H       -4.988206000      5.224634000      0.967983000
H       -3.896504000      5.407266000      2.371595000
H       -0.951976000      5.192291000     -0.922823000
H        0.866448000      3.912076000     -1.930454000
H        2.055269000      1.790421000     -2.281734000
H       -2.887455000      1.073020000      0.991994000
