41
C16PNH18O5
C        4.316939000     -3.913430000      0.556611000
O        2.960705000     -4.158339000      0.232277000
C        2.144860000     -3.081047000      0.008024000
C        0.808730000     -3.407597000     -0.303124000
C       -0.135768000     -2.426622000     -0.558359000
C        0.271113000     -1.090957000     -0.501947000
C        1.603577000     -0.748351000     -0.176193000
C        2.550330000     -1.751513000      0.073934000
C        1.671071000      0.693893000     -0.172939000
C        2.709240000      1.601717000      0.078904000
C        2.432508000      2.963792000      0.016301000
C        1.133498000      3.416482000     -0.293975000
C        0.099795000      2.530622000     -0.550952000
C        0.376300000      1.161900000     -0.496278000
N       -0.458830000      0.072218000     -0.726318000
C       -1.892810000      0.131801000     -0.889376000
C       -2.627847000      0.086229000      0.462778000
P       -4.418666000      0.186192000      0.279022000
O       -4.975011000      1.370683000     -0.417025000
O       -4.707937000     -1.242712000     -0.423764000
O       -4.995519000      0.002613000      1.786313000
H        4.413812000     -3.340506000      1.486987000
H        4.774618000     -4.892391000      0.690297000
H        4.836136000     -3.380151000     -0.249125000
H        0.541590000     -4.457646000     -0.334086000
H       -1.158872000     -2.701774000     -0.790943000
H        3.569500000     -1.478962000      0.317238000
H        3.698174000      1.232533000      0.319410000
H       -0.890872000      2.904380000     -0.785832000
H       -2.210126000     -0.701987000     -1.518336000
H       -2.148559000      1.045262000     -1.428613000
H       -2.317248000      0.925559000      1.090078000
H       -2.388357000     -0.834019000      1.000652000
H       -5.589917000     -1.327408000     -0.806035000
H       -5.546850000      0.745122000      2.061540000
H        0.967647000      4.487209000     -0.324969000
O        3.347259000      3.958117000      0.241947000
C        4.675324000      3.584584000      0.559863000
H        4.721328000      3.003131000      1.488900000
H        5.138007000      3.006073000     -0.249070000
H        5.224665000      4.515258000      0.693201000
