200
Lattice="16.745350349675306 0.0 0.0 0.0 14.80093848199992 0.0 0.0 0.0 35.92037539279996" Properties=species:S:1:pos:R:3:move_mask:L:1:tags:I:1:initial_magmoms:R:1 pbc="T T F"
Ni       0.00000000       0.00000000      15.00000000  F        5       2.00000000
Ni       2.09316879       1.48009385      16.48009385  T        4       2.00000000
Ni       0.00000000       0.00000000      20.92037539  T        1       2.00000000
Ni       0.00000000       2.96018770      15.00000000  F        5       2.00000000
Ni       2.09316879       4.44028154      16.48009385  T        4       2.00000000
Ni       0.00000000       2.96018770      20.92037539  T        1       2.00000000
Ni       0.00000000       5.92037539      15.00000000  F        5       2.00000000
Ni       2.09316879       7.40046924      16.48009385  T        4       2.00000000
Ni       0.00000000       5.92037539      20.92037539  T        1       2.00000000
Ni       0.00000000       8.88056309      15.00000000  F        5       2.00000000
Ni       2.09316879      10.36065694      16.48009385  T        4       2.00000000
Ni       0.00000000       8.88056309      20.92037539  T        1       2.00000000
Ni       0.00000000      11.84075079      15.00000000  F        5       2.00000000
Ni       2.09316879      13.32084463      16.48009385  T        4       2.00000000
Ni       0.00000000      11.84075079      20.92037539  T        1       2.00000000
Ni       4.18633759       0.00000000      17.96018770  T        3       2.00000000
Ni       6.27950638       1.48009385      19.44028154  T        2       2.00000000
Ni       4.18633759       2.96018770      17.96018770  T        3       2.00000000
Ni       6.27950638       4.44028154      19.44028154  T        2       2.00000000
Ni       4.18633759       5.92037539      17.96018770  T        3       2.00000000
Ni       6.27950638       7.40046924      19.44028154  T        2       2.00000000
Ni       4.18633759       8.88056309      17.96018770  T        3       2.00000000
Ni       6.27950638      10.36065694      19.44028154  T        2       2.00000000
Ni       4.18633759      11.84075079      17.96018770  T        3       2.00000000
Ni       6.27950638      13.32084463      19.44028154  T        2       2.00000000
Ni       8.37267517       0.00000000      15.00000000  F        5       2.00000000
Ni      10.46584397       1.48009385      16.48009385  T        4       2.00000000
Ni       8.37267517       0.00000000      20.92037539  T        1       2.00000000
Ni       8.37267517       2.96018770      15.00000000  F        5       2.00000000
Ni      10.46584397       4.44028154      16.48009385  T        4       2.00000000
Ni       8.37267517       2.96018770      20.92037539  T        1       2.00000000
Ni       8.37267517       5.92037539      15.00000000  F        5       2.00000000
Ni      10.46584397       7.40046924      16.48009385  T        4       2.00000000
Ni       8.37267517       5.92037539      20.92037539  T        1       2.00000000
Ni       8.37267517       8.88056309      15.00000000  F        5       2.00000000
Ni      10.46584397      10.36065694      16.48009385  T        4       2.00000000
Ni       8.37267517       8.88056309      20.92037539  T        1       2.00000000
Ni       8.37267517      11.84075079      15.00000000  F        5       2.00000000
Ni      10.46584397      13.32084463      16.48009385  T        4       2.00000000
Ni       8.37267517      11.84075079      20.92037539  T        1       2.00000000
Ni      12.55901276       0.00000000      17.96018770  T        3       2.00000000
Ni      14.65218156       1.48009385      19.44028154  T        2       2.00000000
Ni      12.55901276       2.96018770      17.96018770  T        3       2.00000000
Ni      14.65218156       4.44028154      19.44028154  T        2       2.00000000
Ni      12.55901276       5.92037539      17.96018770  T        3       2.00000000
Ni      14.65218156       7.40046924      19.44028154  T        2       2.00000000
Ni      12.55901276       8.88056309      17.96018770  T        3       2.00000000
Ni      14.65218156      10.36065694      19.44028154  T        2       2.00000000
Ni      12.55901276      11.84075079      17.96018770  T        3       2.00000000
Ni      14.65218156      13.32084463      19.44028154  T        2       2.00000000
Ni       0.00000000       0.00000000      17.96018770  T        3      -2.00000000
Ni       2.09316879       1.48009385      19.44028154  T        2      -2.00000000
Ni       0.00000000       2.96018770      17.96018770  T        3      -2.00000000
Ni       2.09316879       4.44028154      19.44028154  T        2      -2.00000000
Ni       0.00000000       5.92037539      17.96018770  T        3      -2.00000000
Ni       2.09316879       7.40046924      19.44028154  T        2      -2.00000000
Ni       0.00000000       8.88056309      17.96018770  T        3      -2.00000000
Ni       2.09316879      10.36065694      19.44028154  T        2      -2.00000000
Ni       0.00000000      11.84075079      17.96018770  T        3      -2.00000000
Ni       2.09316879      13.32084463      19.44028154  T        2      -2.00000000
Ni       4.18633759       0.00000000      15.00000000  F        5      -2.00000000
Ni       6.27950638       1.48009385      16.48009385  T        4      -2.00000000
Ni       4.18633759       0.00000000      20.92037539  T        1      -2.00000000
Ni       4.18633759       2.96018770      15.00000000  F        5      -2.00000000
Ni       6.27950638       4.44028154      16.48009385  T        4      -2.00000000
Ni       4.18633759       2.96018770      20.92037539  T        1      -2.00000000
Ni       4.18633759       5.92037539      15.00000000  F        5      -2.00000000
Ni       6.27950638       7.40046924      16.48009385  T        4      -2.00000000
Ni       4.18633759       5.92037539      20.92037539  T        1      -2.00000000
Ni       4.18633759       8.88056309      15.00000000  F        5      -2.00000000
Ni       6.27950638      10.36065694      16.48009385  T        4      -2.00000000
Ni       4.18633759       8.88056309      20.92037539  T        1      -2.00000000
Ni       4.18633759      11.84075079      15.00000000  F        5      -2.00000000
Ni       6.27950638      13.32084463      16.48009385  T        4      -2.00000000
Ni       4.18633759      11.84075079      20.92037539  T        1      -2.00000000
Ni       8.37267517       0.00000000      17.96018770  T        3      -2.00000000
Ni      10.46584397       1.48009385      19.44028154  T        2      -2.00000000
Ni       8.37267517       2.96018770      17.96018770  T        3      -2.00000000
Ni      10.46584397       4.44028154      19.44028154  T        2      -2.00000000
Ni       8.37267517       5.92037539      17.96018770  T        3      -2.00000000
Ni      10.46584397       7.40046924      19.44028154  T        2      -2.00000000
Ni       8.37267517       8.88056309      17.96018770  T        3      -2.00000000
Ni      10.46584397      10.36065694      19.44028154  T        2      -2.00000000
Ni       8.37267517      11.84075079      17.96018770  T        3      -2.00000000
Ni      10.46584397      13.32084463      19.44028154  T        2      -2.00000000
Ni      12.55901276       0.00000000      15.00000000  F        5      -2.00000000
Ni      14.65218156       1.48009385      16.48009385  T        4      -2.00000000
Ni      12.55901276       0.00000000      20.92037539  T        1      -2.00000000
Ni      12.55901276       2.96018770      15.00000000  F        5      -2.00000000
Ni      14.65218156       4.44028154      16.48009385  T        4      -2.00000000
Ni      12.55901276       2.96018770      20.92037539  T        1      -2.00000000
Ni      12.55901276       5.92037539      15.00000000  F        5      -2.00000000
Ni      14.65218156       7.40046924      16.48009385  T        4      -2.00000000
Ni      12.55901276       5.92037539      20.92037539  T        1      -2.00000000
Ni      12.55901276       8.88056309      15.00000000  F        5      -2.00000000
Ni      14.65218156      10.36065694      16.48009385  T        4      -2.00000000
Ni      12.55901276       8.88056309      20.92037539  T        1      -2.00000000
Ni      12.55901276      11.84075079      15.00000000  F        5      -2.00000000
Ni      14.65218156      13.32084463      16.48009385  T        4      -2.00000000
Ni      12.55901276      11.84075079      20.92037539  T        1      -2.00000000
O        2.09316879       0.00000000      15.00000000  F        0       0.00000000
O        4.18633759       1.48009385      16.48009385  T        0       0.00000000
O        2.09316879       0.00000000      17.96018770  T        0       0.00000000
O        4.18633759       1.48009385      19.44028154  T        0       0.00000000
O        2.09316879       0.00000000      20.92037539  T        0       0.00000000
O        2.09316879       2.96018770      15.00000000  F        0       0.00000000
O        4.18633759       4.44028154      16.48009385  T        0       0.00000000
O        2.09316879       2.96018770      17.96018770  T        0       0.00000000
O        4.18633759       4.44028154      19.44028154  T        0       0.00000000
O        2.09316879       2.96018770      20.92037539  T        0       0.00000000
O        2.09316879       5.92037539      15.00000000  F        0       0.00000000
O        4.18633759       7.40046924      16.48009385  T        0       0.00000000
O        2.09316879       5.92037539      17.96018770  T        0       0.00000000
O        4.18633759       7.40046924      19.44028154  T        0       0.00000000
O        2.09316879       5.92037539      20.92037539  T        0       0.00000000
O        2.09316879       8.88056309      15.00000000  F        0       0.00000000
O        4.18633759      10.36065694      16.48009385  T        0       0.00000000
O        2.09316879       8.88056309      17.96018770  T        0       0.00000000
O        4.18633759      10.36065694      19.44028154  T        0       0.00000000
O        2.09316879       8.88056309      20.92037539  T        0       0.00000000
O        2.09316879      11.84075079      15.00000000  F        0       0.00000000
O        4.18633759      13.32084463      16.48009385  T        0       0.00000000
O        2.09316879      11.84075079      17.96018770  T        0       0.00000000
O        4.18633759      13.32084463      19.44028154  T        0       0.00000000
O        2.09316879      11.84075079      20.92037539  T        0       0.00000000
O        6.27950638       0.00000000      15.00000000  F        0       0.00000000
O        8.37267517       1.48009385      16.48009385  T        0       0.00000000
O        6.27950638       0.00000000      17.96018770  T        0       0.00000000
O        8.37267517       1.48009385      19.44028154  T        0       0.00000000
O        6.27950638       0.00000000      20.92037539  T        0       0.00000000
O        6.27950638       2.96018770      15.00000000  F        0       0.00000000
O        8.37267517       4.44028154      16.48009385  T        0       0.00000000
O        6.27950638       2.96018770      17.96018770  T        0       0.00000000
O        8.37267517       4.44028154      19.44028154  T        0       0.00000000
O        6.27950638       2.96018770      20.92037539  T        0       0.00000000
O        6.27950638       5.92037539      15.00000000  F        0       0.00000000
O        8.37267517       7.40046924      16.48009385  T        0       0.00000000
O        6.27950638       5.92037539      17.96018770  T        0       0.00000000
O        8.37267517       7.40046924      19.44028154  T        0       0.00000000
O        6.27950638       5.92037539      20.92037539  T        0       0.00000000
O        6.27950638       8.88056309      15.00000000  F        0       0.00000000
O        8.37267517      10.36065694      16.48009385  T        0       0.00000000
O        6.27950638       8.88056309      17.96018770  T        0       0.00000000
O        8.37267517      10.36065694      19.44028154  T        0       0.00000000
O        6.27950638       8.88056309      20.92037539  T        0       0.00000000
O        6.27950638      11.84075079      15.00000000  F        0       0.00000000
O        8.37267517      13.32084463      16.48009385  T        0       0.00000000
O        6.27950638      11.84075079      17.96018770  T        0       0.00000000
O        8.37267517      13.32084463      19.44028154  T        0       0.00000000
O        6.27950638      11.84075079      20.92037539  T        0       0.00000000
O       10.46584397       0.00000000      15.00000000  F        0       0.00000000
O       12.55901276       1.48009385      16.48009385  T        0       0.00000000
O       10.46584397       0.00000000      17.96018770  T        0       0.00000000
O       12.55901276       1.48009385      19.44028154  T        0       0.00000000
O       10.46584397       0.00000000      20.92037539  T        0       0.00000000
O       10.46584397       2.96018770      15.00000000  F        0       0.00000000
O       12.55901276       4.44028154      16.48009385  T        0       0.00000000
O       10.46584397       2.96018770      17.96018770  T        0       0.00000000
O       12.55901276       4.44028154      19.44028154  T        0       0.00000000
O       10.46584397       2.96018770      20.92037539  T        0       0.00000000
O       10.46584397       5.92037539      15.00000000  F        0       0.00000000
O       12.55901276       7.40046924      16.48009385  T        0       0.00000000
O       10.46584397       5.92037539      17.96018770  T        0       0.00000000
O       12.55901276       7.40046924      19.44028154  T        0       0.00000000
O       10.46584397       5.92037539      20.92037539  T        0       0.00000000
O       10.46584397       8.88056309      15.00000000  F        0       0.00000000
O       12.55901276      10.36065694      16.48009385  T        0       0.00000000
O       10.46584397       8.88056309      17.96018770  T        0       0.00000000
O       12.55901276      10.36065694      19.44028154  T        0       0.00000000
O       10.46584397       8.88056309      20.92037539  T        0       0.00000000
O       10.46584397      11.84075079      15.00000000  F        0       0.00000000
O       12.55901276      13.32084463      16.48009385  T        0       0.00000000
O       10.46584397      11.84075079      17.96018770  T        0       0.00000000
O       12.55901276      13.32084463      19.44028154  T        0       0.00000000
O       10.46584397      11.84075079      20.92037539  T        0       0.00000000
O       14.65218156       0.00000000      15.00000000  F        0       0.00000000
O        0.00000000       1.48009385      16.48009385  T        0       0.00000000
O       14.65218156       0.00000000      17.96018770  T        0       0.00000000
O        0.00000000       1.48009385      19.44028154  T        0       0.00000000
O       14.65218156       0.00000000      20.92037539  T        0       0.00000000
O       14.65218156       2.96018770      15.00000000  F        0       0.00000000
O        0.00000000       4.44028154      16.48009385  T        0       0.00000000
O       14.65218156       2.96018770      17.96018770  T        0       0.00000000
O        0.00000000       4.44028154      19.44028154  T        0       0.00000000
O       14.65218156       2.96018770      20.92037539  T        0       0.00000000
O       14.65218156       5.92037539      15.00000000  F        0       0.00000000
O        0.00000000       7.40046924      16.48009385  T        0       0.00000000
O       14.65218156       5.92037539      17.96018770  T        0       0.00000000
O        0.00000000       7.40046924      19.44028154  T        0       0.00000000
O       14.65218156       5.92037539      20.92037539  T        0       0.00000000
O       14.65218156       8.88056309      15.00000000  F        0       0.00000000
O        0.00000000      10.36065694      16.48009385  T        0       0.00000000
O       14.65218156       8.88056309      17.96018770  T        0       0.00000000
O        0.00000000      10.36065694      19.44028154  T        0       0.00000000
O       14.65218156       8.88056309      20.92037539  T        0       0.00000000
O       14.65218156      11.84075079      15.00000000  F        0       0.00000000
O        0.00000000      13.32084463      16.48009385  T        0       0.00000000
O       14.65218156      11.84075079      17.96018770  T        0       0.00000000
O        0.00000000      13.32084463      19.44028154  T        0       0.00000000
O       14.65218156      11.84075079      20.92037539  T        0       0.00000000
