Ni O
 1.0000000000000000
    16.7453503496753058    0.0000000000000000    0.0000000000000000
     0.0000000000000000   14.8009384819999195    0.0000000000000000
     0.0000000000000000    0.0000000000000000   35.9203753927999614
 Ni  O
 100 100
Selective dynamics
Direct
  0.0000000000000000  0.0000000000000000  0.4175902906350658   F   F   F
  0.1250000000000000  0.1000000000000000  0.4587951453175330   T   T   T
  0.0000000000000000  0.0000000000000000  0.5824097093649344   T   T   T
  0.0000000000000000  0.2000000000000000  0.4175902906350658   F   F   F
  0.1250000000000000  0.2999999999999999  0.4587951453175330   T   T   T
  0.0000000000000000  0.2000000000000000  0.5824097093649344   T   T   T
  0.0000000000000000  0.4000000000000000  0.4175902906350658   F   F   F
  0.1250000000000000  0.4999999999999998  0.4587951453175330   T   T   T
  0.0000000000000000  0.4000000000000000  0.5824097093649344   T   T   T
  0.0000000000000000  0.5999999999999998  0.4175902906350658   F   F   F
  0.1250000000000000  0.7000000000000001  0.4587951453175330   T   T   T
  0.0000000000000000  0.5999999999999998  0.5824097093649344   T   T   T
  0.0000000000000000  0.8000000000000000  0.4175902906350658   F   F   F
  0.1250000000000000  0.8999999999999998  0.4587951453175330   T   T   T
  0.0000000000000000  0.8000000000000000  0.5824097093649344   T   T   T
  0.2500000000000000  0.0000000000000000  0.5000000000000001   T   T   T
  0.3750000000000000  0.1000000000000000  0.5412048546824673   T   T   T
  0.2500000000000000  0.2000000000000000  0.5000000000000001   T   T   T
  0.3750000000000000  0.2999999999999999  0.5412048546824673   T   T   T
  0.2500000000000000  0.4000000000000000  0.5000000000000001   T   T   T
  0.3750000000000000  0.4999999999999998  0.5412048546824673   T   T   T
  0.2500000000000000  0.5999999999999998  0.5000000000000001   T   T   T
  0.3750000000000000  0.7000000000000001  0.5412048546824673   T   T   T
  0.2500000000000000  0.8000000000000000  0.5000000000000001   T   T   T
  0.3750000000000000  0.8999999999999998  0.5412048546824673   T   T   T
  0.4999999999999998  0.0000000000000000  0.4175902906350658   F   F   F
  0.6250000000000000  0.1000000000000000  0.4587951453175330   T   T   T
  0.4999999999999998  0.0000000000000000  0.5824097093649344   T   T   T
  0.4999999999999998  0.2000000000000000  0.4175902906350658   F   F   F
  0.6250000000000000  0.2999999999999999  0.4587951453175330   T   T   T
  0.4999999999999998  0.2000000000000000  0.5824097093649344   T   T   T
  0.4999999999999998  0.4000000000000000  0.4175902906350658   F   F   F
  0.6250000000000000  0.4999999999999998  0.4587951453175330   T   T   T
  0.4999999999999998  0.4000000000000000  0.5824097093649344   T   T   T
  0.4999999999999998  0.5999999999999998  0.4175902906350658   F   F   F
  0.6250000000000000  0.7000000000000001  0.4587951453175330   T   T   T
  0.4999999999999998  0.5999999999999998  0.5824097093649344   T   T   T
  0.4999999999999998  0.8000000000000000  0.4175902906350658   F   F   F
  0.6250000000000000  0.8999999999999998  0.4587951453175330   T   T   T
  0.4999999999999998  0.8000000000000000  0.5824097093649344   T   T   T
  0.7500000000000000  0.0000000000000000  0.5000000000000001   T   T   T
  0.8750000000000000  0.1000000000000000  0.5412048546824673   T   T   T
  0.7500000000000000  0.2000000000000000  0.5000000000000001   T   T   T
  0.8750000000000000  0.2999999999999999  0.5412048546824673   T   T   T
  0.7500000000000000  0.4000000000000000  0.5000000000000001   T   T   T
  0.8750000000000000  0.4999999999999998  0.5412048546824673   T   T   T
  0.7500000000000000  0.5999999999999998  0.5000000000000001   T   T   T
  0.8750000000000000  0.7000000000000001  0.5412048546824673   T   T   T
  0.7500000000000000  0.8000000000000000  0.5000000000000001   T   T   T
  0.8750000000000000  0.8999999999999998  0.5412048546824673   T   T   T
  0.0000000000000000  0.0000000000000000  0.5000000000000001   T   T   T
  0.1250000000000000  0.1000000000000000  0.5412048546824673   T   T   T
  0.0000000000000000  0.2000000000000000  0.5000000000000001   T   T   T
  0.1250000000000000  0.2999999999999999  0.5412048546824673   T   T   T
  0.0000000000000000  0.4000000000000000  0.5000000000000001   T   T   T
  0.1250000000000000  0.4999999999999998  0.5412048546824673   T   T   T
  0.0000000000000000  0.5999999999999998  0.5000000000000001   T   T   T
  0.1250000000000000  0.7000000000000001  0.5412048546824673   T   T   T
  0.0000000000000000  0.8000000000000000  0.5000000000000001   T   T   T
  0.1250000000000000  0.8999999999999998  0.5412048546824673   T   T   T
  0.2500000000000000  0.0000000000000000  0.4175902906350658   F   F   F
  0.3750000000000000  0.1000000000000000  0.4587951453175330   T   T   T
  0.2500000000000000  0.0000000000000000  0.5824097093649344   T   T   T
  0.2500000000000000  0.2000000000000000  0.4175902906350658   F   F   F
  0.3750000000000000  0.2999999999999999  0.4587951453175330   T   T   T
  0.2500000000000000  0.2000000000000000  0.5824097093649344   T   T   T
  0.2500000000000000  0.4000000000000000  0.4175902906350658   F   F   F
  0.3750000000000000  0.4999999999999998  0.4587951453175330   T   T   T
  0.2500000000000000  0.4000000000000000  0.5824097093649344   T   T   T
  0.2500000000000000  0.5999999999999998  0.4175902906350658   F   F   F
  0.3750000000000000  0.7000000000000001  0.4587951453175330   T   T   T
  0.2500000000000000  0.5999999999999998  0.5824097093649344   T   T   T
  0.2500000000000000  0.8000000000000000  0.4175902906350658   F   F   F
  0.3750000000000000  0.8999999999999998  0.4587951453175330   T   T   T
  0.2500000000000000  0.8000000000000000  0.5824097093649344   T   T   T
  0.4999999999999998  0.0000000000000000  0.5000000000000001   T   T   T
  0.6250000000000000  0.1000000000000000  0.5412048546824673   T   T   T
  0.4999999999999998  0.2000000000000000  0.5000000000000001   T   T   T
  0.6250000000000000  0.2999999999999999  0.5412048546824673   T   T   T
  0.4999999999999998  0.4000000000000000  0.5000000000000001   T   T   T
  0.6250000000000000  0.4999999999999998  0.5412048546824673   T   T   T
  0.4999999999999998  0.5999999999999998  0.5000000000000001   T   T   T
  0.6250000000000000  0.7000000000000001  0.5412048546824673   T   T   T
  0.4999999999999998  0.8000000000000000  0.5000000000000001   T   T   T
  0.6250000000000000  0.8999999999999998  0.5412048546824673   T   T   T
  0.7500000000000000  0.0000000000000000  0.4175902906350658   F   F   F
  0.8750000000000000  0.1000000000000000  0.4587951453175330   T   T   T
  0.7500000000000000  0.0000000000000000  0.5824097093649344   T   T   T
  0.7500000000000000  0.2000000000000000  0.4175902906350658   F   F   F
  0.8750000000000000  0.2999999999999999  0.4587951453175330   T   T   T
  0.7500000000000000  0.2000000000000000  0.5824097093649344   T   T   T
  0.7500000000000000  0.4000000000000000  0.4175902906350658   F   F   F
  0.8750000000000000  0.4999999999999998  0.4587951453175330   T   T   T
  0.7500000000000000  0.4000000000000000  0.5824097093649344   T   T   T
  0.7500000000000000  0.5999999999999998  0.4175902906350658   F   F   F
  0.8750000000000000  0.7000000000000001  0.4587951453175330   T   T   T
  0.7500000000000000  0.5999999999999998  0.5824097093649344   T   T   T
  0.7500000000000000  0.8000000000000000  0.4175902906350658   F   F   F
  0.8750000000000000  0.8999999999999998  0.4587951453175330   T   T   T
  0.7500000000000000  0.8000000000000000  0.5824097093649344   T   T   T
  0.1250000000000000  0.0000000000000000  0.4175902906350658   F   F   F
  0.2500000000000000  0.1000000000000000  0.4587951453175330   T   T   T
  0.1250000000000000  0.0000000000000000  0.5000000000000001   T   T   T
  0.2500000000000000  0.1000000000000000  0.5412048546824673   T   T   T
  0.1250000000000000  0.0000000000000000  0.5824097093649344   T   T   T
  0.1250000000000000  0.2000000000000000  0.4175902906350658   F   F   F
  0.2500000000000000  0.2999999999999999  0.4587951453175330   T   T   T
  0.1250000000000000  0.2000000000000000  0.5000000000000001   T   T   T
  0.2500000000000000  0.2999999999999999  0.5412048546824673   T   T   T
  0.1250000000000000  0.2000000000000000  0.5824097093649344   T   T   T
  0.1250000000000000  0.4000000000000000  0.4175902906350658   F   F   F
  0.2500000000000000  0.4999999999999998  0.4587951453175330   T   T   T
  0.1250000000000000  0.4000000000000000  0.5000000000000001   T   T   T
  0.2500000000000000  0.4999999999999998  0.5412048546824673   T   T   T
  0.1250000000000000  0.4000000000000000  0.5824097093649344   T   T   T
  0.1250000000000000  0.5999999999999998  0.4175902906350658   F   F   F
  0.2500000000000000  0.7000000000000001  0.4587951453175330   T   T   T
  0.1250000000000000  0.5999999999999998  0.5000000000000001   T   T   T
  0.2500000000000000  0.7000000000000001  0.5412048546824673   T   T   T
  0.1250000000000000  0.5999999999999998  0.5824097093649344   T   T   T
  0.1250000000000000  0.8000000000000000  0.4175902906350658   F   F   F
  0.2500000000000000  0.8999999999999998  0.4587951453175330   T   T   T
  0.1250000000000000  0.8000000000000000  0.5000000000000001   T   T   T
  0.2500000000000000  0.8999999999999998  0.5412048546824673   T   T   T
  0.1250000000000000  0.8000000000000000  0.5824097093649344   T   T   T
  0.3750000000000000  0.0000000000000000  0.4175902906350658   F   F   F
  0.4999999999999998  0.1000000000000000  0.4587951453175330   T   T   T
  0.3750000000000000  0.0000000000000000  0.5000000000000001   T   T   T
  0.4999999999999998  0.1000000000000000  0.5412048546824673   T   T   T
  0.3750000000000000  0.0000000000000000  0.5824097093649344   T   T   T
  0.3750000000000000  0.2000000000000000  0.4175902906350658   F   F   F
  0.4999999999999998  0.2999999999999999  0.4587951453175330   T   T   T
  0.3750000000000000  0.2000000000000000  0.5000000000000001   T   T   T
  0.4999999999999998  0.2999999999999999  0.5412048546824673   T   T   T
  0.3750000000000000  0.2000000000000000  0.5824097093649344   T   T   T
  0.3750000000000000  0.4000000000000000  0.4175902906350658   F   F   F
  0.4999999999999998  0.4999999999999998  0.4587951453175330   T   T   T
  0.3750000000000000  0.4000000000000000  0.5000000000000001   T   T   T
  0.4999999999999998  0.4999999999999998  0.5412048546824673   T   T   T
  0.3750000000000000  0.4000000000000000  0.5824097093649344   T   T   T
  0.3750000000000000  0.5999999999999998  0.4175902906350658   F   F   F
  0.4999999999999998  0.7000000000000001  0.4587951453175330   T   T   T
  0.3750000000000000  0.5999999999999998  0.5000000000000001   T   T   T
  0.4999999999999998  0.7000000000000001  0.5412048546824673   T   T   T
  0.3750000000000000  0.5999999999999998  0.5824097093649344   T   T   T
  0.3750000000000000  0.8000000000000000  0.4175902906350658   F   F   F
  0.4999999999999998  0.8999999999999998  0.4587951453175330   T   T   T
  0.3750000000000000  0.8000000000000000  0.5000000000000001   T   T   T
  0.4999999999999998  0.8999999999999998  0.5412048546824673   T   T   T
  0.3750000000000000  0.8000000000000000  0.5824097093649344   T   T   T
  0.6250000000000000  0.0000000000000000  0.4175902906350658   F   F   F
  0.7500000000000000  0.1000000000000000  0.4587951453175330   T   T   T
  0.6250000000000000  0.0000000000000000  0.5000000000000001   T   T   T
  0.7500000000000000  0.1000000000000000  0.5412048546824673   T   T   T
  0.6250000000000000  0.0000000000000000  0.5824097093649344   T   T   T
  0.6250000000000000  0.2000000000000000  0.4175902906350658   F   F   F
  0.7500000000000000  0.2999999999999999  0.4587951453175330   T   T   T
  0.6250000000000000  0.2000000000000000  0.5000000000000001   T   T   T
  0.7500000000000000  0.2999999999999999  0.5412048546824673   T   T   T
  0.6250000000000000  0.2000000000000000  0.5824097093649344   T   T   T
  0.6250000000000000  0.4000000000000000  0.4175902906350658   F   F   F
  0.7500000000000000  0.4999999999999998  0.4587951453175330   T   T   T
  0.6250000000000000  0.4000000000000000  0.5000000000000001   T   T   T
  0.7500000000000000  0.4999999999999998  0.5412048546824673   T   T   T
  0.6250000000000000  0.4000000000000000  0.5824097093649344   T   T   T
  0.6250000000000000  0.5999999999999998  0.4175902906350658   F   F   F
  0.7500000000000000  0.7000000000000001  0.4587951453175330   T   T   T
  0.6250000000000000  0.5999999999999998  0.5000000000000001   T   T   T
  0.7500000000000000  0.7000000000000001  0.5412048546824673   T   T   T
  0.6250000000000000  0.5999999999999998  0.5824097093649344   T   T   T
  0.6250000000000000  0.8000000000000000  0.4175902906350658   F   F   F
  0.7500000000000000  0.8999999999999998  0.4587951453175330   T   T   T
  0.6250000000000000  0.8000000000000000  0.5000000000000001   T   T   T
  0.7500000000000000  0.8999999999999998  0.5412048546824673   T   T   T
  0.6250000000000000  0.8000000000000000  0.5824097093649344   T   T   T
  0.8750000000000000  0.0000000000000000  0.4175902906350658   F   F   F
  0.0000000000000001  0.1000000000000000  0.4587951453175330   T   T   T
  0.8750000000000000  0.0000000000000000  0.5000000000000001   T   T   T
  0.0000000000000001  0.1000000000000000  0.5412048546824673   T   T   T
  0.8750000000000000  0.0000000000000000  0.5824097093649344   T   T   T
  0.8750000000000000  0.2000000000000000  0.4175902906350658   F   F   F
  0.0000000000000001  0.2999999999999999  0.4587951453175330   T   T   T
  0.8750000000000000  0.2000000000000000  0.5000000000000001   T   T   T
  0.0000000000000001  0.2999999999999999  0.5412048546824673   T   T   T
  0.8750000000000000  0.2000000000000000  0.5824097093649344   T   T   T
  0.8750000000000000  0.4000000000000000  0.4175902906350658   F   F   F
  0.0000000000000001  0.4999999999999998  0.4587951453175330   T   T   T
  0.8750000000000000  0.4000000000000000  0.5000000000000001   T   T   T
  0.0000000000000001  0.4999999999999998  0.5412048546824673   T   T   T
  0.8750000000000000  0.4000000000000000  0.5824097093649344   T   T   T
  0.8750000000000000  0.5999999999999998  0.4175902906350658   F   F   F
  0.0000000000000001  0.7000000000000001  0.4587951453175330   T   T   T
  0.8750000000000000  0.5999999999999998  0.5000000000000001   T   T   T
  0.0000000000000001  0.7000000000000001  0.5412048546824673   T   T   T
  0.8750000000000000  0.5999999999999998  0.5824097093649344   T   T   T
  0.8750000000000000  0.8000000000000000  0.4175902906350658   F   F   F
  0.0000000000000001  0.8999999999999998  0.4587951453175330   T   T   T
  0.8750000000000000  0.8000000000000000  0.5000000000000001   T   T   T
  0.0000000000000001  0.8999999999999998  0.5412048546824673   T   T   T
  0.8750000000000000  0.8000000000000000  0.5824097093649344   T   T   T
